NAME: dataset7
TYPE: TSP
COMMENT: 7-Staedte in dataset7 (Zaw Win)
DIMENSION: 7
EDGE_WEIGHT_TYPE: GEO
EDGE_WEIGHT_FORMAT: FUNCTION
DISPLAY_DATA_TYPE: COORD_DISPLAY
NODE_COORD_SECTION
1 18.90 98.51
2 23.08 95.89
3 17.11 99.73
4 16.40 99.36
5 20.09 98.47
6 23.80 96.58
7 21.09 98.19
EOF